Features/ForMiniZinc/benchmark_puzzles/benchmarks7x7/65/puzzle3.dzn
S = 7;
start = [|3,19,35,0,0,0,8,0,31,0,0,0,0,7,39,0,42,38,0,43,0,48,16,0,18,17,2,13,0,0,6,32,10,0,0,46,0,40,0,0,0,9,14,0,0,0,0,0,0|
0,0,0,0,0,38,0,8,10,0,0,29,0,0,31,0,0,25,0,0,0,0,0,22,0,26,0,33,30,11,0,0,0,0,16,0,0,0,0,0,0,0,0,0,0,12,0,0,0|
0,0,10,42,0,48,0,0,0,0,43,35,0,0,15,4,0,0,0,0,0,0,0,0,41,0,6,9,39,0,0,29,44,0,0,0,18,0,0,23,0,0,21,40,17,26,0,24,31|
11,0,0,0,0,26,0,0,0,47,23,18,0,0,0,0,6,1,0,0,0,0,0,45,0,3,0,10,0,0,9,0,43,31,41,0,0,14,0,0,39,0,0,15,36,44,0,2,0|
31,0,47,0,0,14,0,0,0,0,0,17,21,45,0,0,0,9,0,0,0,0,0,0,0,0,0,0,0,40,13,0,0,0,0,0,0,10,0,26,0,16,0,37,41,0,0,0,23|
28,18,0,0,21,25,0,0,0,0,0,13,0,0,0,14,0,0,0,0,10,0,0,0,0,0,0,0,4,0,0,26,0,35,36,0,49,0,0,43,2,22,46,6,16,8,3,0,0|
43,32,0,0,0,0,0,38,6,0,42,0,9,0,48,0,0,0,0,17,0,0,0,0,29,0,0,39,0,15,0,0,22,0,0,0,3,0,0,35,21,0,0,0,18,0,0,0,0|
0,47,0,0,0,28,0,6,0,0,14,0,0,2,41,0,38,0,0,0,0,12,0,0,0,0,0,0,0,0,0,49,0,17,0,3,0,32,0,8,0,0,22,13,0,21,0,15,7|
0,0,0,0,48,17,41,0,0,43,18,0,0,34,0,0,0,12,0,0,0,0,38,0,0,0,0,0,23,0,40,0,0,0,0,22,0,2,0,0,20,24,8,0,39,11,0,0,19|
12,42,19,0,0,0,0,26,8,0,0,0,0,0,0,9,0,0,48,13,0,21,44,0,15,34,0,6,1,0,0,0,0,0,18,0,47,0,0,16,36,30,0,0,0,46,0,0,0|
1,0,0,45,5,0,6,0,25,0,0,0,36,0,0,0,15,0,0,0,8,2,0,11,0,0,10,0,0,35,0,0,0,0,0,18,0,26,0,28,0,19,17,0,4,0,0,38,0|
15,0,0,38,0,0,0,0,0,0,19,0,0,0,0,20,0,28,0,0,0,30,48,0,27,41,0,43,0,2,0,0,7,45,46,0,0,34,0,0,0,0,0,0,25,0,0,0,0|
0,22,34,0,0,0,0,0,0,21,0,0,0,0,0,0,0,0,0,5,37,28,49,0,0,0,0,36,0,43,0,42,24,0,0,0,0,0,0,41,0,0,10,0,0,0,0,0,0|
21,0,0,32,0,0,0,0,0,42,7,0,0,11,0,18,0,47,0,0,6,8,0,0,19,22,0,0,0,33,0,0,38,0,0,29,0,0,0,13,0,0,0,0,0,36,0,0,0|
0,0,0,0,0,0,0,7,18,0,0,0,23,0,0,2,31,0,0,16,5,47,21,0,0,0,0,25,0,0,0,0,0,36,0,0,0,0,0,0,0,0,0,0,8,0,0,45,0|
0,0,30,0,0,10,0,3,0,20,6,0,0,0,0,0,19,0,0,0,25,0,0,40,0,0,28,0,31,0,0,0,0,0,0,23,0,0,0,0,0,0,39,0,15,0,0,42,43|
0,0,0,0,0,0,0,0,0,38,0,4,0,0,0,28,17,39,32,0,0,0,0,19,8,6,0,11,0,0,30,0,0,0,0,0,2,5,41,0,0,0,0,31,33,0,13,0,0|
0,0,0,29,25,0,0,0,30,0,37,22,0,0,0,48,18,0,0,0,0,0,0,46,2,0,0,0,16,0,0,0,27,49,0,0,33,12,0,10,0,0,0,44,0,0,0,0,34|
0,2,0,0,11,0,0,12,42,0,28,0,0,24,9,0,0,0,0,20,30,0,0,10,0,43,0,0,0,0,0,0,0,0,39,0,19,0,0,0,8,0,0,0,0,0,6,0,14|
0,6,0,0,22,0,38,13,0,0,0,0,0,0,23,41,0,0,45,10,0,0,0,35,3,29,17,0,43,8,0,47,32,0,28,42,25,37,49,0,27,4,19,0,0,0,26,30,0|
49,34,0,21,0,13,23,0,2,0,47,43,0,27,0,1,40,0,46,0,0,0,0,26,0,0,0,0,0,0,0,11,6,0,17,0,0,9,0,0,28,0,16,32,0,0,5,12,18|
0,0,49,0,0,2,0,14,0,0,0,0,0,0,0,0,0,0,16,18,32,13,0,0,0,0,0,22,0,0,43,0,0,12,0,1,0,27,0,40,35,31,0,0,26,0,0,44,28|
0,0,36,43,0,47,0,0,0,0,48,0,27,0,0,24,0,0,0,0,34,0,0,0,0,0,0,3,0,0,49,8,18,0,0,0,0,21,11,0,0,0,32,41,20,0,0,0,0|
40,0,0,0,0,23,0,35,0,0,0,0,0,0,0,0,0,0,31,0,39,0,0,0,0,0,14,0,0,0,36,0,15,16,0,0,0,0,45,0,30,0,2,25,0,42,0,29,0|
0,0,1,0,18,0,32,0,0,28,0,0,16,0,21,0,0,0,0,38,0,29,17,0,0,44,0,0,0,0,0,0,30,0,0,0,0,20,19,0,47,0,0,0,0,0,7,4,0|
0,39,0,4,13,46,0,0,0,0,0,0,2,0,42,0,0,0,0,1,0,0,0,0,0,0,40,0,0,0,34,0,0,0,3,0,0,0,0,5,41,0,15,0,0,43,16,0,0|
0,0,0,17,38,0,16,45,0,0,26,6,0,0,0,27,8,0,0,0,22,0,32,0,0,0,0,42,0,39,0,0,1,0,0,4,0,0,0,0,0,0,0,0,0,0,0,0,3|
0,0,21,6,0,27,0,47,0,0,0,0,0,0,5,13,0,45,28,0,0,0,9,12,0,0,0,41,0,25,22,0,0,0,0,14,0,0,43,48,0,49,0,18,0,0,0,17,10|
0,0,0,0,0,21,5,32,0,10,1,20,0,0,0,0,30,0,36,0,46,17,7,0,33,16,12,27,0,0,0,0,25,0,0,45,0,0,40,0,18,0,0,0,0,0,0,0,38|
0,0,0,8,0,0,0,0,47,0,0,0,12,0,10,0,0,16,0,0,0,45,0,0,0,1,0,26,0,0,0,0,0,43,0,0,0,25,27,15,11,0,0,34,0,24,0,0,0|
0,23,0,0,0,0,0,0,35,0,0,0,0,18,0,0,39,34,29,19,0,0,8,0,0,0,0,0,0,0,41,17,0,0,0,5,0,22,16,0,0,0,0,0,2,0,0,33,0|
13,0,22,0,0,0,0,0,0,0,0,0,0,46,43,0,0,0,0,0,0,0,0,0,0,4,0,0,0,0,0,37,21,0,0,0,0,0,7,0,6,38,0,0,1,18,12,0,0|
32,0,0,0,0,0,48,0,19,27,0,0,0,0,0,0,5,0,14,0,0,40,0,0,44,0,13,21,0,0,12,0,0,0,0,0,35,0,0,0,0,0,43,0,6,7,0,31,0|
0,0,0,35,0,12,47,0,33,0,4,2,0,0,0,6,0,0,0,7,0,0,18,0,42,39,0,23,0,5,0,0,0,0,0,20,0,19,26,44,0,0,48,22,0,0,0,0,41|
0,0,0,0,46,0,0,40,44,0,0,26,0,0,18,17,4,0,0,25,0,0,0,0,43,28,37,0,0,42,0,0,9,0,0,10,21,0,0,0,0,0,0,0,27,16,0,8,0|
0,0,5,0,0,0,45,0,28,0,9,0,0,0,0,0,0,0,0,0,19,0,31,0,0,0,0,0,0,13,0,0,0,0,0,44,0,0,32,12,0,35,0,0,37,49,2,0,0|
7,46,6,0,32,11,39,2,0,0,0,12,0,0,0,22,9,37,13,0,14,0,0,0,38,0,0,45,0,29,44,0,0,0,0,0,0,0,0,0,40,0,0,0,48,0,0,0,0|
4,35,2,0,0,0,0,0,20,0,0,0,5,0,0,0,44,0,0,0,48,39,0,0,0,36,0,0,8,32,0,12,0,0,0,28,46,0,0,0,0,23,3,0,0,0,0,0,0|
0,49,0,0,27,0,0,48,38,0,0,0,0,0,36,0,0,0,0,46,31,23,0,0,6,8,0,0,0,0,0,0,0,9,0,0,0,0,18,0,0,0,0,0,0,0,43,39,26|
0,25,17,0,0,0,0,4,0,0,0,14,37,0,0,47,0,0,0,45,0,9,1,0,0,0,41,0,0,18,0,0,3,0,19,16,48,38,15,0,0,39,0,0,0,0,0,21,0|
23,0,0,0,0,0,40,0,0,0,0,0,44,8,0,0,0,0,0,0,0,0,35,0,0,0,18,0,0,0,0,0,26,25,0,0,0,0,0,27,0,14,0,0,34,4,17,0,0|
41,21,0,20,0,0,0,39,0,0,0,0,6,0,0,0,10,0,43,0,27,46,0,49,0,0,26,0,5,0,38,0,17,0,0,0,0,0,0,0,25,0,0,8,32,0,0,0,12|
2,0,23,1,0,6,0,0,0,0,0,0,0,0,0,0,0,17,35,48,9,0,0,0,0,0,0,0,0,0,0,0,0,0,0,0,0,0,0,0,42,0,18,0,0,0,0,0,0|
0,0,0,0,3,0,0,0,0,0,0,0,22,13,0,15,0,19,0,0,0,0,0,0,0,23,0,29,0,28,25,0,49,1,0,0,0,0,0,7,0,0,0,0,14,0,0,0,0|
0,11,41,0,0,37,0,15,1,0,0,0,31,0,0,38,24,8,0,0,0,0,0,0,0,0,0,0,0,0,0,0,0,0,0,0,29,0,0,45,0,0,0,0,0,30,0,0,0|
0,0,32,24,36,0,0,0,14,0,27,0,0,0,0,0,25,0,0,0,0,0,2,42,0,0,0,0,0,12,47,45,0,10,0,0,0,46,0,18,34,0,0,0,0,1,11,0,29|
0,0,0,0,0,31,0,0,0,16,0,38,0,0,0,0,0,0,0,2,0,0,0,0,0,32,49,0,0,21,0,43,0,0,4,0,0,0,0,0,0,0,0,39,0,0,0,0,0|
0,0,0,0,12,7,0,0,0,0,0,0,0,26,0,5,0,0,0,0,43,0,0,33,47,0,0,0,0,0,0,0,0,6,0,35,0,0,0,11,22,0,38,0,0,0,0,49,0|
0,48,0,25,0,0,0,10,0,0,41,0,4,0,1,0,49,29,12,22,0,0,0,0,0,21,30,19,27,0,0,0,0,0,14,13,0,0,0,0,0,0,6,0,7,0,46,0,0|];