Features/ForMiniZinc/benchmark_puzzles/benchmarks7x7/65/puzzle3.txt
7
1
3	19	35	-1	-1	-1	8	-1	31	-1	-1	-1	-1	7	39	-1	42	38	-1	43	-1	48	16	-1	18	17	2	13	-1	-1	6	32	10	-1	-1	46	-1	40	-1	-1	-1	9	14	-1	-1	-1	-1	-1	-1	
-1	-1	-1	-1	-1	38	-1	8	10	-1	-1	29	-1	-1	31	-1	-1	25	-1	-1	-1	-1	-1	22	-1	26	-1	33	30	11	-1	-1	-1	-1	16	-1	-1	-1	-1	-1	-1	-1	-1	-1	-1	12	-1	-1	-1	
-1	-1	10	42	-1	48	-1	-1	-1	-1	43	35	-1	-1	15	4	-1	-1	-1	-1	-1	-1	-1	-1	41	-1	6	9	39	-1	-1	29	44	-1	-1	-1	18	-1	-1	23	-1	-1	21	40	17	26	-1	24	31	
11	-1	-1	-1	-1	26	-1	-1	-1	47	23	18	-1	-1	-1	-1	6	1	-1	-1	-1	-1	-1	45	-1	3	-1	10	-1	-1	9	-1	43	31	41	-1	-1	14	-1	-1	39	-1	-1	15	36	44	-1	2	-1	
31	-1	47	-1	-1	14	-1	-1	-1	-1	-1	17	21	45	-1	-1	-1	9	-1	-1	-1	-1	-1	-1	-1	-1	-1	-1	-1	40	13	-1	-1	-1	-1	-1	-1	10	-1	26	-1	16	-1	37	41	-1	-1	-1	23	
28	18	-1	-1	21	25	-1	-1	-1	-1	-1	13	-1	-1	-1	14	-1	-1	-1	-1	10	-1	-1	-1	-1	-1	-1	-1	4	-1	-1	26	-1	35	36	-1	49	-1	-1	43	2	22	46	6	16	8	3	-1	-1	
43	32	-1	-1	-1	-1	-1	38	6	-1	42	-1	9	-1	48	-1	-1	-1	-1	17	-1	-1	-1	-1	29	-1	-1	39	-1	15	-1	-1	22	-1	-1	-1	3	-1	-1	35	21	-1	-1	-1	18	-1	-1	-1	-1	
-1	47	-1	-1	-1	28	-1	6	-1	-1	14	-1	-1	2	41	-1	38	-1	-1	-1	-1	12	-1	-1	-1	-1	-1	-1	-1	-1	-1	49	-1	17	-1	3	-1	32	-1	8	-1	-1	22	13	-1	21	-1	15	7	
-1	-1	-1	-1	48	17	41	-1	-1	43	18	-1	-1	34	-1	-1	-1	12	-1	-1	-1	-1	38	-1	-1	-1	-1	-1	23	-1	40	-1	-1	-1	-1	22	-1	2	-1	-1	20	24	8	-1	39	11	-1	-1	19	
12	42	19	-1	-1	-1	-1	26	8	-1	-1	-1	-1	-1	-1	9	-1	-1	48	13	-1	21	44	-1	15	34	-1	6	1	-1	-1	-1	-1	-1	18	-1	47	-1	-1	16	36	30	-1	-1	-1	46	-1	-1	-1	
1	-1	-1	45	5	-1	6	-1	25	-1	-1	-1	36	-1	-1	-1	15	-1	-1	-1	8	2	-1	11	-1	-1	10	-1	-1	35	-1	-1	-1	-1	-1	18	-1	26	-1	28	-1	19	17	-1	4	-1	-1	38	-1	
15	-1	-1	38	-1	-1	-1	-1	-1	-1	19	-1	-1	-1	-1	20	-1	28	-1	-1	-1	30	48	-1	27	41	-1	43	-1	2	-1	-1	7	45	46	-1	-1	34	-1	-1	-1	-1	-1	-1	25	-1	-1	-1	-1	
-1	22	34	-1	-1	-1	-1	-1	-1	21	-1	-1	-1	-1	-1	-1	-1	-1	-1	5	37	28	49	-1	-1	-1	-1	36	-1	43	-1	42	24	-1	-1	-1	-1	-1	-1	41	-1	-1	10	-1	-1	-1	-1	-1	-1	
21	-1	-1	32	-1	-1	-1	-1	-1	42	7	-1	-1	11	-1	18	-1	47	-1	-1	6	8	-1	-1	19	22	-1	-1	-1	33	-1	-1	38	-1	-1	29	-1	-1	-1	13	-1	-1	-1	-1	-1	36	-1	-1	-1	
-1	-1	-1	-1	-1	-1	-1	7	18	-1	-1	-1	23	-1	-1	2	31	-1	-1	16	5	47	21	-1	-1	-1	-1	25	-1	-1	-1	-1	-1	36	-1	-1	-1	-1	-1	-1	-1	-1	-1	-1	8	-1	-1	45	-1	
-1	-1	30	-1	-1	10	-1	3	-1	20	6	-1	-1	-1	-1	-1	19	-1	-1	-1	25	-1	-1	40	-1	-1	28	-1	31	-1	-1	-1	-1	-1	-1	23	-1	-1	-1	-1	-1	-1	39	-1	15	-1	-1	42	43	
-1	-1	-1	-1	-1	-1	-1	-1	-1	38	-1	4	-1	-1	-1	28	17	39	32	-1	-1	-1	-1	19	8	6	-1	11	-1	-1	30	-1	-1	-1	-1	-1	2	5	41	-1	-1	-1	-1	31	33	-1	13	-1	-1	
-1	-1	-1	29	25	-1	-1	-1	30	-1	37	22	-1	-1	-1	48	18	-1	-1	-1	-1	-1	-1	46	2	-1	-1	-1	16	-1	-1	-1	27	49	-1	-1	33	12	-1	10	-1	-1	-1	44	-1	-1	-1	-1	34	
-1	2	-1	-1	11	-1	-1	12	42	-1	28	-1	-1	24	9	-1	-1	-1	-1	20	30	-1	-1	10	-1	43	-1	-1	-1	-1	-1	-1	-1	-1	39	-1	19	-1	-1	-1	8	-1	-1	-1	-1	-1	6	-1	14	
-1	6	-1	-1	22	-1	38	13	-1	-1	-1	-1	-1	-1	23	41	-1	-1	45	10	-1	-1	-1	35	3	29	17	-1	43	8	-1	47	32	-1	28	42	25	37	49	-1	27	4	19	-1	-1	-1	26	30	-1	
49	34	-1	21	-1	13	23	-1	2	-1	47	43	-1	27	-1	1	40	-1	46	-1	-1	-1	-1	26	-1	-1	-1	-1	-1	-1	-1	11	6	-1	17	-1	-1	9	-1	-1	28	-1	16	32	-1	-1	5	12	18	
-1	-1	49	-1	-1	2	-1	14	-1	-1	-1	-1	-1	-1	-1	-1	-1	-1	16	18	32	13	-1	-1	-1	-1	-1	22	-1	-1	43	-1	-1	12	-1	1	-1	27	-1	40	35	31	-1	-1	26	-1	-1	44	28	
-1	-1	36	43	-1	47	-1	-1	-1	-1	48	-1	27	-1	-1	24	-1	-1	-1	-1	34	-1	-1	-1	-1	-1	-1	3	-1	-1	49	8	18	-1	-1	-1	-1	21	11	-1	-1	-1	32	41	20	-1	-1	-1	-1	
40	-1	-1	-1	-1	23	-1	35	-1	-1	-1	-1	-1	-1	-1	-1	-1	-1	31	-1	39	-1	-1	-1	-1	-1	14	-1	-1	-1	36	-1	15	16	-1	-1	-1	-1	45	-1	30	-1	2	25	-1	42	-1	29	-1	
-1	-1	1	-1	18	-1	32	-1	-1	28	-1	-1	16	-1	21	-1	-1	-1	-1	38	-1	29	17	-1	-1	44	-1	-1	-1	-1	-1	-1	30	-1	-1	-1	-1	20	19	-1	47	-1	-1	-1	-1	-1	7	4	-1	
-1	39	-1	4	13	46	-1	-1	-1	-1	-1	-1	2	-1	42	-1	-1	-1	-1	1	-1	-1	-1	-1	-1	-1	40	-1	-1	-1	34	-1	-1	-1	3	-1	-1	-1	-1	5	41	-1	15	-1	-1	43	16	-1	-1	
-1	-1	-1	17	38	-1	16	45	-1	-1	26	6	-1	-1	-1	27	8	-1	-1	-1	22	-1	32	-1	-1	-1	-1	42	-1	39	-1	-1	1	-1	-1	4	-1	-1	-1	-1	-1	-1	-1	-1	-1	-1	-1	-1	3	
-1	-1	21	6	-1	27	-1	47	-1	-1	-1	-1	-1	-1	5	13	-1	45	28	-1	-1	-1	9	12	-1	-1	-1	41	-1	25	22	-1	-1	-1	-1	14	-1	-1	43	48	-1	49	-1	18	-1	-1	-1	17	10	
-1	-1	-1	-1	-1	21	5	32	-1	10	1	20	-1	-1	-1	-1	30	-1	36	-1	46	17	7	-1	33	16	12	27	-1	-1	-1	-1	25	-1	-1	45	-1	-1	40	-1	18	-1	-1	-1	-1	-1	-1	-1	38	
-1	-1	-1	8	-1	-1	-1	-1	47	-1	-1	-1	12	-1	10	-1	-1	16	-1	-1	-1	45	-1	-1	-1	1	-1	26	-1	-1	-1	-1	-1	43	-1	-1	-1	25	27	15	11	-1	-1	34	-1	24	-1	-1	-1	
-1	23	-1	-1	-1	-1	-1	-1	35	-1	-1	-1	-1	18	-1	-1	39	34	29	19	-1	-1	8	-1	-1	-1	-1	-1	-1	-1	41	17	-1	-1	-1	5	-1	22	16	-1	-1	-1	-1	-1	2	-1	-1	33	-1	
13	-1	22	-1	-1	-1	-1	-1	-1	-1	-1	-1	-1	46	43	-1	-1	-1	-1	-1	-1	-1	-1	-1	-1	4	-1	-1	-1	-1	-1	37	21	-1	-1	-1	-1	-1	7	-1	6	38	-1	-1	1	18	12	-1	-1	
32	-1	-1	-1	-1	-1	48	-1	19	27	-1	-1	-1	-1	-1	-1	5	-1	14	-1	-1	40	-1	-1	44	-1	13	21	-1	-1	12	-1	-1	-1	-1	-1	35	-1	-1	-1	-1	-1	43	-1	6	7	-1	31	-1	
-1	-1	-1	35	-1	12	47	-1	33	-1	4	2	-1	-1	-1	6	-1	-1	-1	7	-1	-1	18	-1	42	39	-1	23	-1	5	-1	-1	-1	-1	-1	20	-1	19	26	44	-1	-1	48	22	-1	-1	-1	-1	41	
-1	-1	-1	-1	46	-1	-1	40	44	-1	-1	26	-1	-1	18	17	4	-1	-1	25	-1	-1	-1	-1	43	28	37	-1	-1	42	-1	-1	9	-1	-1	10	21	-1	-1	-1	-1	-1	-1	-1	27	16	-1	8	-1	
-1	-1	5	-1	-1	-1	45	-1	28	-1	9	-1	-1	-1	-1	-1	-1	-1	-1	-1	19	-1	31	-1	-1	-1	-1	-1	-1	13	-1	-1	-1	-1	-1	44	-1	-1	32	12	-1	35	-1	-1	37	49	2	-1	-1	
7	46	6	-1	32	11	39	2	-1	-1	-1	12	-1	-1	-1	22	9	37	13	-1	14	-1	-1	-1	38	-1	-1	45	-1	29	44	-1	-1	-1	-1	-1	-1	-1	-1	-1	40	-1	-1	-1	48	-1	-1	-1	-1	
4	35	2	-1	-1	-1	-1	-1	20	-1	-1	-1	5	-1	-1	-1	44	-1	-1	-1	48	39	-1	-1	-1	36	-1	-1	8	32	-1	12	-1	-1	-1	28	46	-1	-1	-1	-1	23	3	-1	-1	-1	-1	-1	-1	
-1	49	-1	-1	27	-1	-1	48	38	-1	-1	-1	-1	-1	36	-1	-1	-1	-1	46	31	23	-1	-1	6	8	-1	-1	-1	-1	-1	-1	-1	9	-1	-1	-1	-1	18	-1	-1	-1	-1	-1	-1	-1	43	39	26	
-1	25	17	-1	-1	-1	-1	4	-1	-1	-1	14	37	-1	-1	47	-1	-1	-1	45	-1	9	1	-1	-1	-1	41	-1	-1	18	-1	-1	3	-1	19	16	48	38	15	-1	-1	39	-1	-1	-1	-1	-1	21	-1	
23	-1	-1	-1	-1	-1	40	-1	-1	-1	-1	-1	44	8	-1	-1	-1	-1	-1	-1	-1	-1	35	-1	-1	-1	18	-1	-1	-1	-1	-1	26	25	-1	-1	-1	-1	-1	27	-1	14	-1	-1	34	4	17	-1	-1	
41	21	-1	20	-1	-1	-1	39	-1	-1	-1	-1	6	-1	-1	-1	10	-1	43	-1	27	46	-1	49	-1	-1	26	-1	5	-1	38	-1	17	-1	-1	-1	-1	-1	-1	-1	25	-1	-1	8	32	-1	-1	-1	12	
2	-1	23	1	-1	6	-1	-1	-1	-1	-1	-1	-1	-1	-1	-1	-1	17	35	48	9	-1	-1	-1	-1	-1	-1	-1	-1	-1	-1	-1	-1	-1	-1	-1	-1	-1	-1	-1	42	-1	18	-1	-1	-1	-1	-1	-1	
-1	-1	-1	-1	3	-1	-1	-1	-1	-1	-1	-1	22	13	-1	15	-1	19	-1	-1	-1	-1	-1	-1	-1	23	-1	29	-1	28	25	-1	49	1	-1	-1	-1	-1	-1	7	-1	-1	-1	-1	14	-1	-1	-1	-1	
-1	11	41	-1	-1	37	-1	15	1	-1	-1	-1	31	-1	-1	38	24	8	-1	-1	-1	-1	-1	-1	-1	-1	-1	-1	-1	-1	-1	-1	-1	-1	-1	-1	29	-1	-1	45	-1	-1	-1	-1	-1	30	-1	-1	-1	
-1	-1	32	24	36	-1	-1	-1	14	-1	27	-1	-1	-1	-1	-1	25	-1	-1	-1	-1	-1	2	42	-1	-1	-1	-1	-1	12	47	45	-1	10	-1	-1	-1	46	-1	18	34	-1	-1	-1	-1	1	11	-1	29	
-1	-1	-1	-1	-1	31	-1	-1	-1	16	-1	38	-1	-1	-1	-1	-1	-1	-1	2	-1	-1	-1	-1	-1	32	49	-1	-1	21	-1	43	-1	-1	4	-1	-1	-1	-1	-1	-1	-1	-1	39	-1	-1	-1	-1	-1	
-1	-1	-1	-1	12	7	-1	-1	-1	-1	-1	-1	-1	26	-1	5	-1	-1	-1	-1	43	-1	-1	33	47	-1	-1	-1	-1	-1	-1	-1	-1	6	-1	35	-1	-1	-1	11	22	-1	38	-1	-1	-1	-1	49	-1	
-1	48	-1	25	-1	-1	-1	10	-1	-1	41	-1	4	-1	1	-1	49	29	12	22	-1	-1	-1	-1	-1	21	30	19	27	-1	-1	-1	-1	-1	14	13	-1	-1	-1	-1	-1	-1	6	-1	7	-1	46	-1	-1	
